72 75 22 56 4 
65 71 81 34 35 
2 21 73 41 54 
59 99 85 37 93 
14 44 38 43 13 
63 64 49 48 
53 26 
45 82 18 6 
12 68 24 80 
39 23 67 55 25 
33 29 78 3 77 
62 11 90 10 
5 83 61 84 96 
40 94 97 
27 69 51 9 66 1 
92 42 15 87 57 74 58 
36 47 19 8 46 17 
28 76 79 50 
31 30 20 32 70 
95 98 16 86 91 100 
52 88 7 60 89 
